RT is False
Default write of storage_offers_DA.csv just to have a file (but constraint should be inactive)
Reading model...
...model read.
creating competitive generators file...
...competitive generators recorded.
Loading data...
.. day-ahead data with real-time VRE data read.
Compiling instance...
...instance created.
Creating Offer Mitigation (model will solve as dispatch if TRUE)...
NOTE: storage offers will not be mitigated
...storage offer mitigation file created
Converting model to MPEC...
...converted
NOTE: initial MIP solve with only storage competitive to get feasible solution
Solving...

Welcome to IBM(R) ILOG(R) CPLEX(R) Interactive Optimizer 12.9.0.0
  with Simplex, Mixed Integer & Barrier Optimizers
5725-A06 5725-A29 5724-Y48 5724-Y49 5724-Y54 5724-Y55 5655-Y21
Copyright IBM Corp. 1988, 2019.  All Rights Reserved.

Type 'help' for a list of available commands.
Type 'help' followed by a command name for more
information on commands.

CPLEX> Logfile 'cplex.log' closed.
Logfile 'C:\Users\llavin\Desktop\test826\logs\tmpog1qiclb.cplex.log' open.
CPLEX> New value for parallel optimization mode: -1
CPLEX> New value for emphasis for MIP optimization: 1
CPLEX> New value for mixed integer optimality gap tolerance: 0.01
CPLEX> New value for integrality tolerance: 1e-12
CPLEX> New value for deterministic time limit in ticks: 75000
CPLEX> Problem 'C:\Users\llavin\Desktop\test826\logs\tmpj_t4vni_.pyomo.lp' read.
Read time = 0.23 sec. (13.92 ticks)
CPLEX> Problem name         : C:\Users\llavin\Desktop\test826\logs\tmpj_t4vni_.pyomo.lp
Objective sense      : Maximize
Variables            :   53809  [Nneg: 1,  Box: 22004,  Free: 4464,
                                 Binary: 27340]
Objective nonzeros   :    9022
Linear constraints   :  123253  [Less: 41346,  Greater: 59096,  Equal: 22811]
  Nonzeros           :  293210
  RHS nonzeros       :   67484

Variables            : Min LB: -5000.000        Max UB: 1000000.       
Objective nonzeros   : Min   : 0.05833333       Max   : 2500.000       
Linear constraints   :
  Nonzeros           : Min   : 0.05833333       Max   : 1000000.       
  RHS nonzeros       : Min   : 0.05833333       Max   : 1000000.       
CPLEX> CPXPARAM_Parallel                                -1
CPXPARAM_Emphasis_MIP                            1
CPXPARAM_DetTimeLimit                            75000
CPXPARAM_MIP_Tolerances_MIPGap                   0.01
CPXPARAM_MIP_Tolerances_Integrality              9.9999999999999998e-13
Tried aggregator 4 times.
MIP Presolve eliminated 88742 rows and 19041 columns.
MIP Presolve added 3365 rows and 0 columns.
MIP Presolve modified 24835 coefficients.
Aggregator did 12983 substitutions.
Reduced MIP has 24893 rows, 21225 columns, and 71645 nonzeros.
Reduced MIP has 8391 binaries, 0 generals, 0 SOSs, and 0 indicators.
Presolve time = 0.33 sec. (192.35 ticks)
Probing fixed 382 vars, tightened 4183 bounds.
Probing time = 0.08 sec. (19.29 ticks)
Tried aggregator 2 times.
MIP Presolve eliminated 861 rows and 764 columns.
MIP Presolve modified 3028 coefficients.
Aggregator did 36 substitutions.
Reduced MIP has 23996 rows, 20425 columns, and 69051 nonzeros.
Reduced MIP has 8009 binaries, 0 generals, 0 SOSs, and 0 indicators.
Presolve time = 0.11 sec. (87.41 ticks)
Probing fixed 0 vars, tightened 248 bounds.
Probing time = 0.14 sec. (21.95 ticks)
Clique table members: 44610.
MIP emphasis: integer feasibility.
MIP search method: dynamic search.
Parallel mode: opportunistic, using up to 32 threads.
Root relaxation solution time = 0.38 sec. (581.31 ticks)

        Nodes                                         Cuts/
   Node  Left     Objective  IInf  Best Integer    Best Bound    ItCnt     Gap

      0     0        0.0000    69                      0.0000     4957         
*     0+    0                            0.0000        0.0000             0.00%
      0     0        cutoff              0.0000        0.0000     4957    0.00%
Elapsed time = 1.67 sec. (1263.04 ticks, tree = 0.01 MB, solutions = 1)

Root node processing (before b&c):
  Real time             =    1.69 sec. (1264.99 ticks)
Parallel b&c, 32 threads:
  Real time             =    0.00 sec. (0.00 ticks)
  Sync time (average)   =    0.00 sec.
  Wait time (average)   =    0.00 sec.
                          ------------
Total (root+branch&cut) =    1.69 sec. (1264.99 ticks)

Solution pool: 1 solution saved.

MIP - Integer optimal solution:  Objective =  1.5024852473e-09
Solution time =    1.70 sec.  Iterations = 4957  Nodes = 0
Deterministic time = 1265.14 ticks  (742.89 ticks/sec)

CPLEX> Incumbent solution written to file 'C:\Users\llavin\Desktop\test826\logs\tmpfi3aa07m.cplex.sol'.
CPLEX> NOTE: no warmstart specified for MIP iteration, default behavior is true
NOTE: resolving with all competitive generators using storage-only solution to warmstart
Solving...

Welcome to IBM(R) ILOG(R) CPLEX(R) Interactive Optimizer 12.9.0.0
  with Simplex, Mixed Integer & Barrier Optimizers
5725-A06 5725-A29 5724-Y48 5724-Y49 5724-Y54 5724-Y55 5655-Y21
Copyright IBM Corp. 1988, 2019.  All Rights Reserved.

Type 'help' for a list of available commands.
Type 'help' followed by a command name for more
information on commands.

CPLEX> Logfile 'cplex.log' closed.
Logfile 'C:\Users\llavin\Desktop\test826\logs\tmpotbn7cl3.cplex.log' open.
CPLEX> New value for parallel optimization mode: -1
CPLEX> New value for emphasis for MIP optimization: 1
CPLEX> New value for mixed integer optimality gap tolerance: 0.01
CPLEX> New value for integrality tolerance: 1e-12
CPLEX> New value for deterministic time limit in ticks: 75000
CPLEX> Problem 'C:\Users\llavin\Desktop\test826\logs\tmp3gj70bnw.pyomo.lp' read.
Read time = 0.23 sec. (13.94 ticks)
CPLEX> MIP start file 'C:\Users\llavin\Desktop\test826\logs\tmp8veainf_.cplex.mst' read.
CPLEX> Problem name         : C:\Users\llavin\Desktop\test826\logs\tmp3gj70bnw.pyomo.lp
Objective sense      : Maximize
Variables            :   54529  [Nneg: 1,  Box: 22724,  Free: 4464,
                                 Binary: 27340]
Objective nonzeros   :    9718
Linear constraints   :  123253  [Less: 41346,  Greater: 59096,  Equal: 22811]
  Nonzeros           :  293210
  RHS nonzeros       :   67484

Variables            : Min LB: -5000.000        Max UB: 1000000.       
Objective nonzeros   : Min   : 0.05833333       Max   : 2500.000       
Linear constraints   :
  Nonzeros           : Min   : 0.05833333       Max   : 1000000.       
  RHS nonzeros       : Min   : 0.05833333       Max   : 1000000.       
CPLEX> CPXPARAM_Parallel                                -1
CPXPARAM_Emphasis_MIP                            1
CPXPARAM_DetTimeLimit                            75000
CPXPARAM_MIP_Tolerances_MIPGap                   0.01
CPXPARAM_MIP_Tolerances_Integrality              9.9999999999999998e-13
Warning:  No solution found from 1 MIP starts.
Retaining values of one MIP start for possible repair.
Tried aggregator 4 times.
MIP Presolve eliminated 88742 rows and 19761 columns.
MIP Presolve added 3365 rows and 0 columns.
MIP Presolve modified 24835 coefficients.
Aggregator did 12983 substitutions.
Reduced MIP has 24893 rows, 21225 columns, and 71645 nonzeros.
Reduced MIP has 8391 binaries, 0 generals, 0 SOSs, and 0 indicators.
Presolve time = 0.31 sec. (192.76 ticks)
Probing fixed 382 vars, tightened 4183 bounds.
Probing time = 0.08 sec. (19.29 ticks)
Tried aggregator 2 times.
MIP Presolve eliminated 861 rows and 764 columns.
MIP Presolve modified 3028 coefficients.
Aggregator did 36 substitutions.
Reduced MIP has 23996 rows, 20425 columns, and 69051 nonzeros.
Reduced MIP has 8009 binaries, 0 generals, 0 SOSs, and 0 indicators.
Presolve time = 0.11 sec. (87.41 ticks)
Probing fixed 0 vars, tightened 248 bounds.
Probing time = 0.14 sec. (21.95 ticks)
Clique table members: 44610.
MIP emphasis: integer feasibility.
MIP search method: dynamic search.
Parallel mode: opportunistic, using up to 32 threads.
Root relaxation solution time = 0.44 sec. (638.96 ticks)

        Nodes                                         Cuts/
   Node  Left     Objective  IInf  Best Integer    Best Bound    ItCnt     Gap

      0     0   112058.8498   287                 112058.8498     5595         
      0     0   108561.1090   168                   Cuts: 115     5744         
      0     0   108176.5389   172                    Cuts: 58     5808         
      0     0   108057.7334   173                    Cuts: 26     5842         
Repair heuristic found nothing.
      0     6    infeasible                          Cuts: 17     5898         
Elapsed time = 3.66 sec. (1818.67 ticks, tree = 0.02 MB, solutions = 0)
    562   119    80887.1252   119                  94195.7357     7695         
    955   706    45204.1817    87                  94195.7357    16363         
   1537   887    -6734.8933    75                  94195.7357    23908         
   2238  1543   -11500.4566    33                  94195.7357    37277         
   2868  1641  -152598.6629    46                  94195.7357    40610         
   3351  1878  -113206.1767    57                  94195.7357    53330         
   3855  2161  -366912.8374    66                  94191.2907    67683         
   4289  2456    infeasible                        94191.2907    80423         
   4691  2578       -0.0000    29                  94191.2907    88321         
   6330  3427      -12.5808    25                  94191.2907   122360         
Elapsed time = 17.44 sec. (4922.15 ticks, tree = 79.61 MB, solutions = 0)
   7776  4124    infeasible                        94191.2907   151236         
   8966  4916    -3877.2862    54                  94191.2907   186413         
  10017  4954   -42365.8911    35                  94191.2907   187630         
  11074  5553   -34167.6097    52                  94191.2907   214196         
  11967  5272      -12.5808    21                  94191.2907   205510         
  12739  6641  -327021.6384    48                  94191.2907   271304         
  13319  6678   -23767.9634    53                  94191.2907   273555         
  13935  6534    infeasible                        94191.2907   261107         
  14494  7038     -217.2577    51                  94105.4209   291760         
  14946  7527   -46181.8963    42                  94105.4209   313565         
Elapsed time = 42.59 sec. (14470.92 ticks, tree = 127.38 MB, solutions = 0)
  15397  7031    infeasible                        94105.4209   291840         
  15821  7190    -2862.6646    49                  94105.4209   299434         
  16189  7820    infeasible                        94105.4209   329557         
  16506  7908    infeasible                        94105.4209   329687         
  16798  8389        0.0000    26                  94105.4209   355952         
  17035  8384        0.0000    25                  94105.4209   353970         
  17293  8384        0.0000    25                  94105.4209   353973         
  17536  9012    -5241.6205    40                  94105.4209   374165         
  17756  7982       -7.2220    16                  94105.4209   337096         
  17968  9120   -45380.1928    37                  94105.4209   380543         
Elapsed time = 62.98 sec. (24027.45 ticks, tree = 190.73 MB, solutions = 0)
  18182  9180   -79463.0050    44                  94105.4209   383198         
  18406  7987        0.0000    26                  94105.4209   337142         
  18617  9310    -3969.0321    31                  94105.4209   388687         
  18784  7996    infeasible                        94105.4209   337216         
  18926  8538        0.0000    25                  94105.4209   359656         
  19068  8538        0.0000    25                  94105.4209   359658         
  19198  9217    infeasible                        94105.4209   381719         
  19322  8542        0.0000    25                  94105.4209   359670         
  19457  8289       -7.2220    21                  94105.4209   348960         
  19595  8546        0.0000    24                  94105.4209   359682         
Elapsed time = 76.44 sec. (33661.50 ticks, tree = 188.47 MB, solutions = 0)
  19726  8546      -12.5808    21                  94105.4209   359840         
  19861  8552    infeasible                        94105.4209   359806         
  19982  8599        0.0000    24                  94105.4209   359967         
  20111  8575    infeasible                        94105.4209   359880         
  20222  9024        0.0000    25                  94105.4209   373916         
  20331  9221        0.0000    25                  94105.4209   381745         
  20444  9013       -0.0000    25                  94105.4209   373857         
  20557  9247    infeasible                        94105.4209   382206         
  20630  9024        0.0000    25                  94105.4209   373984         
  20730  9024        0.0000    25                  94105.4209   373929         
Elapsed time = 91.22 sec. (43237.27 ticks, tree = 189.47 MB, solutions = 0)
  20830  9218       -0.0000    25                  94105.4209   381731         
  20932  9064        0.0000    24                  94105.4209   374320         
  21006  9043      -12.5808    25                  94105.4209   374122         
  21096  9052    infeasible                        94105.4209   374224         
  21187  9051    infeasible                        94105.4209   374196         
  21264  9219      -12.5808    15                  94105.4209   381749         
  21350  9248      -12.5808    25                  94105.4209   382226         
  21425  9282    infeasible                        94105.4209   382677         
  21498  9647        0.0000    25                  94105.4209   399473         
  21585  9231        0.0000    19                  94105.4209   382070         
Elapsed time = 96.95 sec. (52827.58 ticks, tree = 194.58 MB, solutions = 0)
  21653  9227      -12.5808    18                  94105.4209   381892         
  21721  9626        0.0000     7                  94105.4209   399322         
  21803  9271    infeasible                        94105.4209   382530         
  21867  9280    infeasible                        94105.4209   382634         
  21945  9267    infeasible                        94105.4209   382424         
  22000  9264       -7.2220    21                  94105.4209   382364         
  22065  9650      -12.5808    14                  94105.4209   399505         
  22133  9626    infeasible                        94105.4209   399348         
  22173  9283        0.0000    19                  94105.4209   382637         
  22256  9280    infeasible                        94105.4209   382621         
Elapsed time = 101.61 sec. (62537.77 ticks, tree = 197.60 MB, solutions = 0)
  22306  9282    infeasible                        94105.4209   382640         
  22353  9665    infeasible                        94105.4209   399771         
  22409  9656    infeasible                        94105.4209   399735         
  22463  9654    infeasible                        94105.4209   399712         
  22498  9654      -12.5808    20                  94105.4209   399557         
  22539  9654    infeasible                        94105.4209   399698         
  22567  9667    infeasible                        94105.4209   399788         
  22590  9655      -12.5808    18                  94105.4209   399696         
  22617  9657    infeasible                        94105.4209   399756         
  22635  9663        0.0000    17                  94105.4209   399787         
Elapsed time = 105.48 sec. (72449.02 ticks, tree = 201.01 MB, solutions = 0)
  22654  9655       -7.2220    21                  94105.4209   399715         
  22668  9658        0.0000    19                  94105.4209   399759         
  22672  9667        0.0000    25                  94105.4209   399826         

Cover cuts applied:  5
Implied bound cuts applied:  5
Flow cuts applied:  133
Mixed integer rounding cuts applied:  13
Gomory fractional cuts applied:  5

Root node processing (before b&c):
  Real time             =    2.61 sec. (1812.81 ticks)
Parallel b&c, 32 threads:
  Real time             =  103.47 sec. (74316.44 ticks)
  Sync time (average)   =    0.56 sec.
  Wait time (average)   =    0.00 sec.
                          ------------
Total (root+branch&cut) =  106.08 sec. (76129.24 ticks)


MIP - Deterministic time limit exceeded, no integer solution.
Current MIP best bound =  9.4105420947e+04 (gap is infinite)
Solution time =  106.08 sec.  Iterations = 400817  Nodes = 22673 (9745)
Deterministic time = 76129.40 ticks  (717.67 ticks/sec)

CPLEX> CPLEX Error  1217: No solution exists.
No file written.
CPLEX> gap is infinite, so writing 0
Exporting results... 
